objective value:                                   -7
t_n_6                                               1 	(obj:-1)
t_n_699                                             1 	(obj:-1)
t_n_841                                             1 	(obj:-1)
t_n_882                                             1 	(obj:-1)
t_n_899                                             1 	(obj:-1)
t_n_944                                             1 	(obj:-1)
t_n_997                                             1 	(obj:-1)
